************************************************************************
file with basedata            : mm52_.bas
initial value random generator: 1424037310
************************************************************************
projects                      :  1
jobs (incl. supersource/sink ):  12
horizon                       :  72
RESOURCES
  - renewable                 :  2   R
  - nonrenewable              :  2   N
  - doubly constrained        :  0   D
************************************************************************
PROJECT INFORMATION:
pronr.  #jobs rel.date duedate tardcost  MPM-Time
    1     10      0       10        4       10
************************************************************************
PRECEDENCE RELATIONS:
jobnr.    #modes  #successors   successors
   0        1          3           1   2   3
   1        3          3           5   6   9
   2        3          1           4
   3        3          3           5   7   9
   4        3          2           6   7
   5        3          1          10
   6        3          1          10
   7        3          1           8
   8        3          1          11
   9        3          1          11
  10        3          1          11
  11        1          0        
************************************************************************
REQUESTS/DURATIONS:
jobnr. mode duration  R 1  R 2  R 3  R 4  E(W 1)
------------------------------------------------------------------------
  0      1     0       0    0    0    0     0
  1      1     3       2    7    8    0    51
  2      1     2       4    6    0    5    30
  3      1     4       9   10    0   10    116
  4      1     1       7   10    0    5    22
  5      1     1       8    1    8    0    18
  6      1     1       5    7    8    0    20
  7      1     1       9    8    8    0    25
  8      1     5       4    2    0    3    45
  9      1     2       2    8    0    5    30
 10      1     3       5    5    0    8    54
 11      1     0       0    0    0    0     0
************************************************************************
RESOURCEAVAILABILITIES:
  R 1
   142
************************************************************************
RESOURCE LIMITS:
jobnr.  l(R 1)  u(R 1)
------------------------------------------------------------------------
  0        0       0
  1        9      17
  2        8      15
  3       15      29
  4       12      22
  5        9      18
  6       11      20
  7       13      25
  8        5       9
  9        8      15
 10       10      18
 11        0       0
************************************************************************
SCENARIOS:
------------------------------------------------------------------------
RESOURCE k = 1
s = 1: (0, 80, 26, 128, 23, 33, 32, 26, 39, 34, 54, 0)
s = 2: (0, 31, 36, 149, 24, 17, 14, 30, 78, 26, 38, 0)
s = 3: (0, 46, 28, 155, 27, 17, 20, 14, 68, 27, 28, 0)
s = 4: (0, 30, 23, 84, 21, 12, 14, 22, 54, 36, 39, 0)
s = 5: (0, 42, 30, 85, 27, 32, 14, 23, 65, 37, 47, 0)
s = 6: (0, 54, 28, 62, 31, 22, 21, 30, 51, 23, 66, 0)
s = 7: (0, 51, 25, 114, 26, 25, 11, 18, 36, 25, 70, 0)
s = 8: (0, 59, 39, 122, 13, 29, 23, 18, 38, 36, 48, 0)
s = 9: (0, 46, 26, 105, 24, 22, 26, 26, 36, 38, 48, 0)
s = 10: (0, 62, 32, 91, 17, 14, 24, 24, 29, 22, 33, 0)
s = 11: (0, 52, 52, 156, 23, 27, 25, 20, 49, 27, 53, 0)
s = 12: (0, 64, 18, 87, 17, 22, 17, 27, 27, 32, 38, 0)
s = 13: (0, 64, 31, 137, 24, 17, 14, 32, 56, 37, 33, 0)
s = 14: (0, 38, 50, 100, 22, 17, 12, 32, 44, 34, 77, 0)
s = 15: (0, 55, 36, 86, 16, 17, 23, 32, 50, 38, 43, 0)
s = 16: (0, 48, 35, 97, 36, 15, 20, 35, 33, 20, 65, 0)
s = 17: (0, 50, 24, 70, 19, 11, 20, 20, 58, 38, 55, 0)
s = 18: (0, 59, 32, 108, 18, 22, 14, 25, 49, 19, 38, 0)
s = 19: (0, 53, 33, 127, 20, 13, 11, 28, 54, 34, 66, 0)
s = 20: (0, 35, 29, 77, 28, 19, 20, 20, 69, 27, 52, 0)
s = 21: (0, 65, 37, 136, 19, 22, 28, 25, 40, 33, 56, 0)
s = 22: (0, 68, 29, 126, 22, 21, 26, 21, 47, 28, 36, 0)
s = 23: (0, 78, 20, 87, 19, 15, 19, 24, 36, 22, 109, 0)
s = 24: (0, 36, 24, 136, 24, 16, 20, 22, 56, 34, 53, 0)
s = 25: (0, 60, 32, 100, 24, 24, 22, 34, 60, 35, 55, 0)
s = 26: (0, 45, 19, 96, 22, 25, 18, 20, 60, 38, 54, 0)
s = 27: (0, 64, 30, 212, 14, 28, 32, 18, 49, 18, 83, 0)
s = 28: (0, 39, 26, 134, 17, 12, 16, 19, 32, 24, 74, 0)
s = 29: (0, 53, 32, 99, 19, 21, 23, 31, 31, 35, 49, 0)
s = 30: (0, 48, 27, 78, 34, 14, 18, 33, 52, 19, 40, 0)
s = 31: (0, 71, 29, 132, 15, 25, 19, 30, 27, 34, 32, 0)
s = 32: (0, 71, 31, 117, 33, 15, 20, 22, 34, 30, 65, 0)
s = 33: (0, 38, 25, 144, 27, 14, 27, 25, 46, 25, 57, 0)
s = 34: (0, 35, 43, 115, 18, 17, 18, 31, 43, 17, 42, 0)
s = 35: (0, 63, 28, 100, 26, 12, 13, 20, 58, 48, 41, 0)
s = 36: (0, 52, 25, 81, 20, 13, 26, 30, 53, 27, 43, 0)
s = 37: (0, 57, 45, 186, 16, 20, 17, 18, 49, 21, 94, 0)
s = 38: (0, 81, 35, 143, 21, 15, 19, 24, 48, 23, 35, 0)
s = 39: (0, 47, 27, 120, 16, 26, 28, 17, 60, 23, 40, 0)
s = 40: (0, 41, 29, 67, 24, 19, 23, 23, 63, 34, 66, 0)
s = 41: (0, 52, 18, 94, 28, 13, 18, 33, 55, 18, 31, 0)
s = 42: (0, 55, 21, 116, 37, 12, 26, 20, 32, 21, 51, 0)
s = 43: (0, 44, 45, 111, 20, 24, 13, 18, 39, 20, 49, 0)
s = 44: (0, 39, 37, 145, 13, 17, 16, 27, 48, 53, 46, 0)
s = 45: (0, 39, 22, 103, 20, 19, 16, 21, 32, 47, 64, 0)
s = 46: (0, 28, 21, 130, 23, 23, 26, 29, 52, 27, 36, 0)
s = 47: (0, 41, 20, 119, 20, 18, 16, 21, 60, 47, 38, 0)
s = 48: (0, 74, 38, 80, 24, 20, 28, 22, 30, 21, 40, 0)
s = 49: (0, 47, 43, 105, 26, 18, 15, 20, 26, 36, 78, 0)
s = 50: (0, 37, 22, 136, 16, 31, 12, 34, 48, 28, 51, 0)
s = 51: (0, 28, 33, 107, 15, 23, 19, 30, 53, 36, 46, 0)
s = 52: (0, 60, 27, 158, 15, 16, 13, 21, 68, 32, 42, 0)
s = 53: (0, 32, 34, 71, 17, 12, 19, 52, 36, 33, 84, 0)
s = 54: (0, 42, 33, 131, 26, 14, 24, 30, 65, 19, 59, 0)
s = 55: (0, 81, 48, 145, 36, 17, 28, 38, 29, 39, 49, 0)
s = 56: (0, 38, 24, 116, 29, 13, 18, 28, 72, 36, 52, 0)
s = 57: (0, 57, 37, 178, 12, 18, 14, 18, 39, 32, 51, 0)
s = 58: (0, 61, 42, 145, 19, 18, 35, 27, 41, 35, 39, 0)
s = 59: (0, 32, 25, 113, 19, 21, 24, 18, 41, 32, 93, 0)
s = 60: (0, 48, 37, 73, 25, 15, 14, 21, 61, 26, 36, 0)
s = 61: (0, 59, 43, 171, 19, 26, 14, 18, 44, 22, 63, 0)
s = 62: (0, 60, 24, 86, 14, 15, 22, 25, 47, 47, 53, 0)
s = 63: (0, 50, 25, 103, 14, 26, 27, 29, 33, 18, 86, 0)
s = 64: (0, 55, 25, 85, 37, 16, 20, 23, 48, 31, 37, 0)
s = 65: (0, 70, 18, 111, 23, 22, 34, 24, 30, 38, 62, 0)
s = 66: (0, 53, 29, 137, 18, 17, 19, 30, 57, 29, 45, 0)
s = 67: (0, 65, 21, 99, 16, 26, 22, 30, 57, 39, 59, 0)
s = 68: (0, 47, 22, 175, 23, 22, 31, 31, 35, 40, 30, 0)
s = 69: (0, 74, 32, 175, 23, 19, 20, 25, 67, 29, 53, 0)
s = 70: (0, 47, 29, 132, 22, 26, 18, 18, 71, 40, 49, 0)
s = 71: (0, 57, 26, 91, 27, 17, 26, 31, 59, 37, 67, 0)
s = 72: (0, 52, 28, 81, 17, 13, 17, 25, 41, 40, 81, 0)
s = 73: (0, 41, 19, 210, 29, 20, 17, 26, 24, 23, 56, 0)
s = 74: (0, 35, 33, 108, 41, 17, 29, 15, 31, 35, 63, 0)
s = 75: (0, 49, 30, 90, 19, 19, 29, 24, 48, 35, 42, 0)
s = 76: (0, 43, 19, 84, 41, 15, 21, 44, 71, 32, 29, 0)
s = 77: (0, 32, 29, 146, 28, 19, 14, 16, 47, 29, 48, 0)
s = 78: (0, 33, 51, 100, 27, 12, 19, 22, 28, 37, 74, 0)
s = 79: (0, 70, 39, 79, 18, 20, 11, 16, 47, 32, 58, 0)
s = 80: (0, 67, 24, 117, 20, 16, 15, 35, 71, 37, 50, 0)
s = 81: (0, 62, 30, 79, 16, 24, 16, 20, 38, 28, 72, 0)
s = 82: (0, 27, 25, 104, 18, 30, 19, 16, 73, 37, 88, 0)
s = 83: (0, 38, 23, 90, 14, 21, 32, 37, 29, 26, 49, 0)
s = 84: (0, 49, 23, 66, 25, 22, 16, 23, 59, 26, 50, 0)
s = 85: (0, 50, 29, 154, 18, 16, 12, 15, 33, 26, 40, 0)
s = 86: (0, 66, 25, 74, 29, 13, 24, 29, 46, 29, 63, 0)
s = 87: (0, 33, 29, 87, 17, 34, 23, 38, 47, 27, 58, 0)
s = 88: (0, 35, 28, 71, 23, 14, 22, 18, 56, 16, 56, 0)
s = 89: (0, 79, 51, 146, 14, 17, 29, 34, 33, 26, 47, 0)
s = 90: (0, 43, 30, 156, 22, 14, 32, 36, 52, 40, 70, 0)
s = 91: (0, 41, 44, 208, 20, 12, 24, 30, 65, 19, 45, 0)
s = 92: (0, 52, 34, 102, 18, 21, 27, 27, 64, 34, 44, 0)
s = 93: (0, 59, 23, 84, 26, 18, 15, 23, 43, 37, 43, 0)
s = 94: (0, 60, 20, 139, 26, 16, 25, 16, 48, 34, 39, 0)
s = 95: (0, 40, 29, 122, 20, 18, 16, 30, 51, 24, 57, 0)
s = 96: (0, 37, 37, 135, 15, 19, 14, 32, 40, 42, 76, 0)
s = 97: (0, 36, 27, 181, 19, 14, 26, 23, 41, 41, 60, 0)
s = 98: (0, 65, 20, 104, 25, 19, 17, 33, 32, 32, 51, 0)
s = 99: (0, 66, 32, 64, 26, 14, 24, 29, 74, 27, 51, 0)
s = 100: (0, 61, 18, 141, 17, 24, 13, 30, 45, 21, 54, 0)
s = 101: (0, 92, 22, 123, 18, 17, 20, 15, 38, 29, 53, 0)
s = 102: (0, 57, 28, 157, 37, 13, 20, 24, 33, 28, 55, 0)
s = 103: (0, 64, 43, 137, 33, 18, 21, 28, 47, 37, 30, 0)
s = 104: (0, 50, 32, 106, 25, 16, 21, 23, 36, 19, 63, 0)
s = 105: (0, 77, 20, 192, 20, 21, 19, 22, 38, 30, 75, 0)
s = 106: (0, 59, 24, 168, 19, 24, 18, 19, 39, 30, 58, 0)
s = 107: (0, 48, 19, 120, 22, 16, 24, 25, 44, 29, 65, 0)
s = 108: (0, 86, 23, 125, 23, 24, 20, 20, 35, 39, 52, 0)
s = 109: (0, 49, 23, 145, 15, 25, 18, 28, 58, 46, 32, 0)
s = 110: (0, 71, 37, 184, 16, 12, 17, 36, 54, 30, 70, 0)
s = 111: (0, 35, 23, 143, 19, 13, 15, 19, 57, 18, 42, 0)
s = 112: (0, 58, 34, 85, 25, 15, 19, 31, 35, 30, 71, 0)
s = 113: (0, 46, 25, 103, 21, 18, 20, 25, 49, 27, 44, 0)
s = 114: (0, 62, 32, 112, 18, 26, 20, 22, 74, 31, 32, 0)
s = 115: (0, 30, 38, 98, 17, 32, 31, 26, 34, 26, 58, 0)
s = 116: (0, 47, 56, 72, 39, 27, 17, 24, 56, 35, 73, 0)
s = 117: (0, 41, 29, 140, 29, 22, 26, 36, 38, 26, 36, 0)
s = 118: (0, 43, 22, 116, 26, 17, 18, 22, 45, 23, 39, 0)
s = 119: (0, 75, 38, 99, 17, 15, 18, 35, 34, 25, 67, 0)
s = 120: (0, 36, 31, 134, 19, 20, 22, 29, 34, 39, 31, 0)
s = 121: (0, 74, 42, 94, 21, 13, 19, 20, 73, 38, 67, 0)
s = 122: (0, 60, 24, 83, 26, 24, 15, 24, 45, 24, 36, 0)
s = 123: (0, 56, 21, 95, 25, 15, 16, 26, 43, 26, 74, 0)
s = 124: (0, 59, 29, 137, 29, 17, 13, 17, 41, 23, 39, 0)
s = 125: (0, 45, 20, 94, 21, 27, 22, 39, 36, 32, 60, 0)
s = 126: (0, 47, 20, 80, 22, 19, 14, 18, 38, 36, 63, 0)
s = 127: (0, 38, 37, 137, 23, 15, 33, 24, 49, 23, 51, 0)
s = 128: (0, 44, 35, 75, 22, 16, 21, 22, 67, 23, 84, 0)
s = 129: (0, 61, 19, 136, 26, 20, 29, 20, 36, 26, 72, 0)
s = 130: (0, 74, 21, 151, 26, 12, 20, 22, 51, 27, 43, 0)
s = 131: (0, 44, 38, 123, 31, 22, 21, 21, 49, 25, 40, 0)
s = 132: (0, 52, 23, 124, 19, 25, 13, 26, 41, 29, 44, 0)
s = 133: (0, 38, 27, 94, 23, 20, 33, 29, 39, 19, 74, 0)
s = 134: (0, 54, 23, 110, 18, 18, 17, 24, 30, 21, 65, 0)
s = 135: (0, 39, 22, 78, 22, 14, 20, 21, 27, 35, 60, 0)
s = 136: (0, 77, 29, 105, 17, 21, 19, 29, 39, 32, 40, 0)
s = 137: (0, 27, 27, 172, 14, 17, 16, 34, 57, 26, 47, 0)
s = 138: (0, 87, 42, 93, 20, 11, 25, 31, 42, 29, 41, 0)
s = 139: (0, 64, 25, 144, 16, 18, 20, 33, 40, 30, 57, 0)
s = 140: (0, 49, 23, 104, 29, 14, 18, 32, 28, 29, 54, 0)
s = 141: (0, 38, 25, 127, 22, 21, 13, 20, 61, 18, 75, 0)
s = 142: (0, 40, 41, 73, 26, 27, 22, 20, 43, 36, 71, 0)
s = 143: (0, 29, 55, 71, 26, 19, 19, 21, 43, 38, 55, 0)
s = 144: (0, 48, 27, 85, 16, 21, 11, 24, 75, 17, 40, 0)
s = 145: (0, 51, 29, 103, 23, 16, 24, 27, 42, 20, 56, 0)
s = 146: (0, 58, 47, 65, 28, 24, 16, 25, 36, 37, 45, 0)
s = 147: (0, 38, 37, 68, 24, 12, 28, 25, 56, 30, 62, 0)
s = 148: (0, 58, 25, 75, 27, 13, 28, 44, 37, 21, 79, 0)
s = 149: (0, 35, 33, 91, 13, 20, 31, 16, 49, 50, 43, 0)
s = 150: (0, 36, 34, 62, 33, 14, 25, 14, 30, 24, 47, 0)
s = 151: (0, 34, 22, 132, 22, 20, 20, 15, 45, 46, 63, 0)
s = 152: (0, 36, 26, 73, 22, 12, 22, 30, 41, 23, 52, 0)
s = 153: (0, 59, 55, 99, 13, 15, 19, 14, 47, 17, 58, 0)
s = 154: (0, 45, 29, 112, 14, 14, 14, 37, 55, 31, 58, 0)
s = 155: (0, 34, 30, 125, 29, 24, 15, 33, 39, 20, 77, 0)
s = 156: (0, 37, 23, 75, 18, 16, 17, 31, 40, 48, 50, 0)
s = 157: (0, 55, 43, 84, 20, 14, 23, 14, 34, 28, 45, 0)
s = 158: (0, 63, 21, 118, 17, 17, 25, 43, 51, 27, 47, 0)
s = 159: (0, 32, 30, 75, 24, 14, 15, 21, 67, 23, 35, 0)
s = 160: (0, 30, 32, 85, 28, 17, 11, 22, 66, 37, 58, 0)
s = 161: (0, 77, 38, 105, 16, 16, 11, 27, 44, 33, 71, 0)
s = 162: (0, 40, 31, 128, 24, 26, 22, 26, 48, 24, 57, 0)
s = 163: (0, 79, 29, 81, 17, 29, 21, 28, 38, 56, 35, 0)
s = 164: (0, 51, 39, 119, 23, 11, 30, 24, 35, 25, 36, 0)
s = 165: (0, 57, 24, 150, 13, 14, 29, 23, 46, 46, 45, 0)
s = 166: (0, 52, 31, 127, 24, 27, 25, 30, 30, 40, 48, 0)
s = 167: (0, 39, 34, 98, 17, 15, 14, 17, 34, 21, 30, 0)
s = 168: (0, 39, 40, 66, 24, 23, 31, 33, 35, 38, 66, 0)
s = 169: (0, 61, 26, 90, 30, 25, 25, 31, 34, 37, 61, 0)
s = 170: (0, 40, 44, 107, 18, 26, 20, 36, 54, 18, 53, 0)
s = 171: (0, 36, 35, 74, 17, 21, 19, 27, 66, 29, 82, 0)
s = 172: (0, 68, 19, 68, 27, 13, 15, 28, 34, 24, 59, 0)
s = 173: (0, 49, 28, 107, 15, 16, 12, 19, 41, 45, 42, 0)
s = 174: (0, 45, 38, 96, 35, 20, 21, 28, 48, 31, 45, 0)
s = 175: (0, 30, 25, 75, 16, 22, 24, 38, 26, 29, 36, 0)
s = 176: (0, 67, 39, 125, 23, 12, 13, 20, 50, 36, 48, 0)
s = 177: (0, 33, 42, 81, 38, 17, 19, 30, 44, 32, 38, 0)
s = 178: (0, 29, 30, 72, 20, 17, 15, 13, 62, 28, 56, 0)
s = 179: (0, 51, 30, 91, 17, 21, 30, 21, 76, 25, 80, 0)
s = 180: (0, 38, 20, 88, 15, 19, 24, 30, 26, 24, 87, 0)
s = 181: (0, 47, 50, 70, 14, 19, 26, 31, 44, 22, 40, 0)
s = 182: (0, 29, 47, 93, 30, 23, 16, 30, 34, 25, 44, 0)
s = 183: (0, 83, 41, 77, 15, 20, 18, 24, 65, 19, 61, 0)
s = 184: (0, 64, 31, 76, 21, 22, 15, 24, 48, 26, 44, 0)
s = 185: (0, 37, 35, 90, 40, 21, 15, 17, 57, 52, 52, 0)
s = 186: (0, 41, 57, 96, 19, 14, 15, 18, 64, 28, 53, 0)
s = 187: (0, 65, 28, 124, 19, 17, 27, 24, 62, 27, 48, 0)
s = 188: (0, 79, 22, 100, 20, 13, 13, 27, 60, 18, 59, 0)
s = 189: (0, 60, 30, 70, 22, 13, 25, 21, 69, 32, 45, 0)
s = 190: (0, 55, 39, 143, 23, 14, 24, 26, 36, 37, 53, 0)
s = 191: (0, 64, 26, 118, 17, 24, 16, 17, 31, 46, 53, 0)
s = 192: (0, 47, 26, 97, 16, 17, 18, 24, 41, 37, 39, 0)
s = 193: (0, 42, 38, 106, 23, 27, 14, 38, 39, 19, 68, 0)
s = 194: (0, 42, 35, 81, 18, 14, 15, 25, 31, 19, 60, 0)
s = 195: (0, 43, 25, 127, 20, 19, 23, 34, 64, 18, 49, 0)
s = 196: (0, 61, 37, 168, 20, 17, 26, 32, 66, 46, 55, 0)
s = 197: (0, 74, 42, 81, 21, 24, 13, 15, 35, 26, 82, 0)
s = 198: (0, 43, 42, 91, 17, 15, 18, 43, 33, 35, 56, 0)
s = 199: (0, 60, 32, 171, 22, 18, 12, 25, 60, 38, 32, 0)
s = 200: (0, 40, 29, 171, 16, 21, 18, 26, 55, 28, 44, 0)
************************************************************************
ES/LS-VALUES:
jobnr.   ES(i)    LS(i)
------------------------------------------------------------------------
  0        0        0
  1        0       57
  2        0       54
  3        0       52
  4        3       58
  5        7       63
  6        5       63
  7        7       60
  8        9       63
  9        7       68
 10        8       65
 11       17       72
************************************************************************
BIG-M-VALUES:
M1 = 16, M2 = 212
************************************************************************
